
******************************************************************************
This program contains Ipopt, a library for large-scale nonlinear optimization.
 Ipopt is released as open source code under the Eclipse Public License (EPL).
         For more information visit http://projects.coin-or.org/Ipopt

This version of Ipopt was compiled from source code available at
    https://github.com/IDAES/Ipopt as part of the Institute for the Design of
    Advanced Energy Systems Process Systems Engineering Framework (IDAES PSE
    Framework) Copyright (c) 2018-2019. See https://github.com/IDAES/idaes-pse.

This version of Ipopt was compiled using HSL, a collection of Fortran codes
    for large-scale scientific computation.  All technical papers, sales and
    publicity material resulting from use of the HSL codes within IPOPT must
    contain the following acknowledgement:
        HSL, a collection of Fortran codes for large-scale scientific
        computation. See http://www.hsl.rl.ac.uk.
******************************************************************************

This is Ipopt version 3.13.2, running with linear solver ma27.

Number of nonzeros in equality constraint Jacobian...:      808
Number of nonzeros in inequality constraint Jacobian.:        0
Number of nonzeros in Lagrangian Hessian.............:      702

Total number of variables............................:      351
                     variables with only lower bounds:      108
                variables with lower and upper bounds:      189
                     variables with only upper bounds:        0
Total number of equality constraints.................:      350
Total number of inequality constraints...............:        0
        inequality constraints with only lower bounds:        0
   inequality constraints with lower and upper bounds:        0
        inequality constraints with only upper bounds:        0

iter    objective    inf_pr   inf_du lg(mu)  ||d||  lg(rg) alpha_du alpha_pr  ls
   0  0.0000000e+00 4.50e-01 1.01e-28  -1.0 0.00e+00    -  0.00e+00 0.00e+00   0
   1  3.4553889e+00 1.82e+00 4.73e+04  -1.0 2.60e+05    -  4.40e-01 4.38e-01h  1
   2  3.9717673e+00 1.71e+00 4.48e+04  -1.0 1.69e+05    -  7.88e-01 4.98e-02h  1
   3  4.5493809e+00 1.62e+00 4.25e+04  -1.0 2.21e+05    -  7.90e-01 5.24e-02h  1
   4  2.6835745e+01 1.78e-01 1.04e+04  -1.0 2.13e+05    -  8.03e-01 9.90e-01h  1
   5  3.1281601e+01 3.64e-02 1.66e+03  -1.0 2.75e+04    -  9.70e-01 9.90e-01h  1
   6  3.1382347e+01 1.96e-03 1.30e+04  -1.0 6.02e+02    -  9.24e-01 9.90e-01h  1
   7  3.1395118e+01 4.05e-05 3.29e+01  -1.0 1.54e+02    -  9.90e-01 9.90e-01h  1
   8  3.1382153e+01 1.48e-05 4.72e+05  -3.8 1.98e+02    -  1.00e+00 8.41e-01f  1
   9  3.1382219e+01 7.41e-06 9.58e+06  -3.8 1.68e+00    -  1.00e+00 5.00e-01h  2
iter    objective    inf_pr   inf_du lg(mu)  ||d||  lg(rg) alpha_du alpha_pr  ls
  10  3.1382284e+01 2.02e-09 7.06e+03  -3.8 8.37e-01    -  1.00e+00 1.00e+00h  1
  11  3.1382284e+01 2.19e-12 3.74e+07  -3.8 1.13e-04    -  1.00e+00 1.00e+00h  1
In iteration 11, 27 Slacks too small, adjusting variable bounds
  12  3.1382284e+01 3.15e-12 2.48e+11  -3.8 4.40e-07    -  1.00e+00 1.00e+00h  1
  13  3.1382284e+01 1.23e-12 4.25e-02  -3.8 4.98e-07    -  1.00e+00 1.00e+00H  1
  14  3.1382282e+01 9.73e-13 2.45e+11  -9.0 1.93e+00    -  1.00e+00 1.56e-02f  7
  15  3.1382281e+01 1.74e-12 2.43e+11  -9.0 1.90e+00    -  1.00e+00 7.81e-03f  8
  16  3.1382280e+01 1.60e-12 2.42e+11  -9.0 1.89e+00    -  1.00e+00 3.91e-03f  9
  17  3.1382278e+01 1.49e-12 2.38e+11  -9.0 1.88e+00    -  1.00e+00 1.56e-02f  7
  18  3.1382277e+01 1.41e-12 2.36e+11  -9.0 1.85e+00    -  1.00e+00 7.81e-03f  8
  19  3.1382134e+01 1.62e-09 1.21e-05  -9.0 1.84e+00    -  1.00e+00 1.00e+00f  1
iter    objective    inf_pr   inf_du lg(mu)  ||d||  lg(rg) alpha_du alpha_pr  ls
  20  3.1382134e+01 1.25e-12 2.33e-10  -9.0 2.55e-05    -  1.00e+00 1.00e+00h  1

Number of Iterations....: 20

                                   (scaled)                 (unscaled)
Objective...............:   3.1382133762358908e+01    3.1382133762358908e+01
Dual infeasibility......:   2.3283064365386963e-10    2.3283064365386963e-10
Constraint violation....:   1.2452261444195756e-12    1.2452261444195756e-12
Complementarity.........:   9.0909090909090931e-10    9.0909090909090931e-10
Overall NLP error.......:   1.2452261444195756e-12    9.0909090909090931e-10


Number of objective function evaluations             = 72
Number of objective gradient evaluations             = 21
Number of equality constraint evaluations            = 72
Number of inequality constraint evaluations          = 0
Number of equality constraint Jacobian evaluations   = 21
Number of inequality constraint Jacobian evaluations = 0
Number of Lagrangian Hessian evaluations             = 20
Total CPU secs in IPOPT (w/o function evaluations)   =      0.039
Total CPU secs in NLP function evaluations           =      0.597

EXIT: Optimal Solution Found.
